#######################################
### Exact MIP solver for the HHCRSP ###
#######################################
-- Instance file: new-instances/HHCRSP_50_10_25_0.4_C_C.txt
-- Max threads: 4
-- Time limit: 999999 seconds
-- Use initial solution: No
Trivial flow violations prevented generating 6518 variables.
Model exported.
Version identifier: 20.1.0.0 | 2020-11-10 | 9bedb6d68
CPXPARAM_Threads                                 4
CPXPARAM_TimeLimit                               999999
Parallel mode: deterministic, using up to 4 threads for concurrent optimization:
 * Starting dual Simplex on 1 thread...
 * Starting Barrier on 3 threads...
Tried aggregator 1 time.
LP Presolve eliminated 1614 rows and 460 columns.
Reduced LP has 8648 rows, 8310 columns, and 77407 nonzeros.
Presolve time = 0.04 sec. (21.86 ticks)
Symmetry aggregator did 6787 additional substitutions.

Iteration log . . .
Iteration:     1   Dual objective     =             0.000000
Iteration:   225   Dual objective     =           121.333333

Dual crossover.
  Dual:  Fixing 97 variables.
       96 DMoves:  Infeasibility  3.14748363e-14  Objective  1.21666667e+02
        0 DMoves:  Infeasibility  2.32591859e-14  Objective  1.21666667e+02
  Dual:  Pushed 2, exchanged 95.
  Primal:  Fixing 47 variables.
       46 PMoves:  Infeasibility  2.22044605e-16  Objective  1.21666667e+02
        0 PMoves:  Infeasibility  3.88578059e-16  Objective  1.21666667e+02
  Primal:  Pushed 26, exchanged 21.

Dual simplex solved model.


Solution status from MIP model:
-- Processing time: 0.088 sec.
-- Memory used: 74.8379 MB
-- Best bound: inf
-- Obj value: 121.667
-- Gap: inf%
-- Total distance: 365
-- Total tardiness: 0
-- Largest tardiness: 0
